leaderboard/leaderboard/scenarios/perception_contract/out_vtest/formula1.smt2
(declare-fun cos_yaw_1 () Real)
(declare-fun y_1 () Real)
(declare-fun x_1 () Real)
(declare-fun cos_yaw_0 () Real)
(declare-fun time () Real)
(declare-fun npc_y_0 () Real)
(declare-fun npc_y_3 () Real)
(declare-fun npc_x_0 () Real)
(declare-fun npc_x_3 () Real)
(declare-fun y () Real)
(declare-fun x () Real)
(declare-fun npc_y_1 () Real)
(declare-fun npc_x_1 () Real)
(declare-fun s () Real)
(declare-fun npc_y_2 () Real)
(declare-fun npc_x_2 () Real)
(declare-fun sin_yaw_1 () Real)
(declare-fun y_0 () Real)
(declare-fun sin_yaw_0 () Real)
(declare-fun x_0 () Real)
(assert (let ((a!1 (- x
              (+ (- (* (- (/ 24508416652679443.0 10000000000000000.0))
                       cos_yaw_0)
                    (* (/ 2128324270248413.0 2000000000000000.0) sin_yaw_0))
                 x_0)))
      (a!2 (- (+ (- (* (- (/ 24508416652679443.0 10000000000000000.0))
                       cos_yaw_0)
                    (* (- (/ 2128324270248413.0 2000000000000000.0)) sin_yaw_0))
                 x_0)
              (+ (- (* (- (/ 24508416652679443.0 10000000000000000.0))
                       cos_yaw_0)
                    (* (/ 2128324270248413.0 2000000000000000.0) sin_yaw_0))
                 x_0)))
      (a!3 (- y
              (+ (* (- (/ 24508416652679443.0 10000000000000000.0)) sin_yaw_0)
                 (* (/ 2128324270248413.0 2000000000000000.0) cos_yaw_0)
                 y_0)))
      (a!4 (- (+ (* (- (/ 24508416652679443.0 10000000000000000.0)) sin_yaw_0)
                 (* (- (/ 2128324270248413.0 2000000000000000.0)) cos_yaw_0)
                 y_0)
              (+ (* (- (/ 24508416652679443.0 10000000000000000.0)) sin_yaw_0)
                 (* (/ 2128324270248413.0 2000000000000000.0) cos_yaw_0)
                 y_0)))
      (a!5 (- (+ (- (* (/ 24508416652679443.0 10000000000000000.0) cos_yaw_0)
                    (* (/ 2128324270248413.0 2000000000000000.0) sin_yaw_0))
                 x_0)
              (+ (- (* (- (/ 24508416652679443.0 10000000000000000.0))
                       cos_yaw_0)
                    (* (/ 2128324270248413.0 2000000000000000.0) sin_yaw_0))
                 x_0)))
      (a!6 (- (+ (* (/ 24508416652679443.0 10000000000000000.0) sin_yaw_0)
                 (* (/ 2128324270248413.0 2000000000000000.0) cos_yaw_0)
                 y_0)
              (+ (* (- (/ 24508416652679443.0 10000000000000000.0)) sin_yaw_0)
                 (* (/ 2128324270248413.0 2000000000000000.0) cos_yaw_0)
                 y_0)))
      (a!7 (and (= s 0.0)
                (= npc_x_0 (/ 14642882537841797.0 50000000000000.0))
                (= npc_y_0 (/ 5739452362060547.0 100000000000000.0))
                (= npc_x_1 (/ 1464290542602539.0 5000000000000.0))
                (= npc_y_1 (/ 3702200698852539.0 100000000000000.0))
                (= npc_x_2 (/ 78038215637207.0 2500000000000.0))
                (= npc_y_2 (/ 1851000213623047.0 50000000000000.0))
                (= npc_x_3 (/ 1560741424560547.0 50000000000000.0))
                (= npc_y_3 (/ 7174065113067627.0 125000000000000.0))))
      (a!8 (=> (and (>= (+ time 0.0) (/ 217.0 5.0))
                    (<= (+ time 0.0) (/ 267.0 5.0)))
               (and (>= s 2.0) (<= s 15.0))))
      (a!9 (+ (/ 14642882537841797.0 50000000000000.0)
              (* (* (- (/ 9999862909317017.0 10000000000000000.0)) s)
                 (- (+ time 0.0) (/ 217.0 5.0)))))
      (a!10 (+ (/ 5739452362060547.0 100000000000000.0)
               (* (* (- (/ 1522471138741821.0 1250000000000000000.0)) s)
                  (- (+ time 0.0) (/ 217.0 5.0)))))
      (a!11 (+ (/ 1464290542602539.0 5000000000000.0)
               (* (* (- (/ 9999862909317017.0 10000000000000000.0)) s)
                  (- (+ time 0.0) (/ 217.0 5.0)))))
      (a!12 (+ (/ 3702200698852539.0 100000000000000.0)
               (* (* (- (/ 1522471138741821.0 1250000000000000000.0)) s)
                  (- (+ time 0.0) (/ 217.0 5.0)))))
      (a!13 (+ (/ 78038215637207.0 2500000000000.0)
               (* (* (- (/ 9999862909317017.0 10000000000000000.0)) s)
                  (- (+ time 0.0) (/ 217.0 5.0)))))
      (a!14 (+ (/ 1851000213623047.0 50000000000000.0)
               (* (* (- (/ 1522471138741821.0 1250000000000000000.0)) s)
                  (- (+ time 0.0) (/ 217.0 5.0)))))
      (a!15 (+ (/ 1560741424560547.0 50000000000000.0)
               (* (* (- (/ 9999862909317017.0 10000000000000000.0)) s)
                  (- (+ time 0.0) (/ 217.0 5.0)))))
      (a!16 (+ (/ 7174065113067627.0 125000000000000.0)
               (* (* (- (/ 1522471138741821.0 1250000000000000000.0)) s)
                  (- (+ time 0.0) (/ 217.0 5.0)))))
      (a!17 (+ (* (- x npc_x_0) (- npc_x_1 npc_x_0))
               (* (- y npc_y_0) (- npc_y_1 npc_y_0))))
      (a!19 (+ (* (- x npc_x_0) (- npc_x_3 npc_x_0))
               (* (- y npc_y_0) (- npc_y_3 npc_y_0))))
      (a!22 (- x
               (+ (- (* (- (/ 24508416652679443.0 10000000000000000.0))
                        cos_yaw_1)
                     (* (/ 2128324270248413.0 2000000000000000.0) sin_yaw_1))
                  x_1)))
      (a!23 (- (+ (- (* (- (/ 24508416652679443.0 10000000000000000.0))
                        cos_yaw_1)
                     (* (- (/ 2128324270248413.0 2000000000000000.0)) sin_yaw_1))
                  x_1)
               (+ (- (* (- (/ 24508416652679443.0 10000000000000000.0))
                        cos_yaw_1)
                     (* (/ 2128324270248413.0 2000000000000000.0) sin_yaw_1))
                  x_1)))
      (a!24 (- y
               (+ (* (- (/ 24508416652679443.0 10000000000000000.0)) sin_yaw_1)
                  (* (/ 2128324270248413.0 2000000000000000.0) cos_yaw_1)
                  y_1)))
      (a!25 (- (+ (* (- (/ 24508416652679443.0 10000000000000000.0)) sin_yaw_1)
                  (* (- (/ 2128324270248413.0 2000000000000000.0)) cos_yaw_1)
                  y_1)
               (+ (* (- (/ 24508416652679443.0 10000000000000000.0)) sin_yaw_1)
                  (* (/ 2128324270248413.0 2000000000000000.0) cos_yaw_1)
                  y_1)))
      (a!26 (- (+ (- (* (/ 24508416652679443.0 10000000000000000.0) cos_yaw_1)
                     (* (/ 2128324270248413.0 2000000000000000.0) sin_yaw_1))
                  x_1)
               (+ (- (* (- (/ 24508416652679443.0 10000000000000000.0))
                        cos_yaw_1)
                     (* (/ 2128324270248413.0 2000000000000000.0) sin_yaw_1))
                  x_1)))
      (a!27 (- (+ (* (/ 24508416652679443.0 10000000000000000.0) sin_yaw_1)
                  (* (/ 2128324270248413.0 2000000000000000.0) cos_yaw_1)
                  y_1)
               (+ (* (- (/ 24508416652679443.0 10000000000000000.0)) sin_yaw_1)
                  (* (/ 2128324270248413.0 2000000000000000.0) cos_yaw_1)
                  y_1)))
      (a!28 (=> (and (>= (+ time (/ 1.0 2.0)) (/ 217.0 5.0))
                     (<= (+ time (/ 1.0 2.0)) (/ 267.0 5.0)))
                (and (>= s 2.0) (<= s 15.0))))
      (a!29 (+ (/ 14642882537841797.0 50000000000000.0)
               (* (* (- (/ 9999862909317017.0 10000000000000000.0)) s)
                  (- (+ time (/ 1.0 2.0)) (/ 217.0 5.0)))))
      (a!30 (+ (/ 5739452362060547.0 100000000000000.0)
               (* (* (- (/ 1522471138741821.0 1250000000000000000.0)) s)
                  (- (+ time (/ 1.0 2.0)) (/ 217.0 5.0)))))
      (a!31 (+ (/ 1464290542602539.0 5000000000000.0)
               (* (* (- (/ 9999862909317017.0 10000000000000000.0)) s)
                  (- (+ time (/ 1.0 2.0)) (/ 217.0 5.0)))))
      (a!32 (+ (/ 3702200698852539.0 100000000000000.0)
               (* (* (- (/ 1522471138741821.0 1250000000000000000.0)) s)
                  (- (+ time (/ 1.0 2.0)) (/ 217.0 5.0)))))
      (a!33 (+ (/ 78038215637207.0 2500000000000.0)
               (* (* (- (/ 9999862909317017.0 10000000000000000.0)) s)
                  (- (+ time (/ 1.0 2.0)) (/ 217.0 5.0)))))
      (a!34 (+ (/ 1851000213623047.0 50000000000000.0)
               (* (* (- (/ 1522471138741821.0 1250000000000000000.0)) s)
                  (- (+ time (/ 1.0 2.0)) (/ 217.0 5.0)))))
      (a!35 (+ (/ 1560741424560547.0 50000000000000.0)
               (* (* (- (/ 9999862909317017.0 10000000000000000.0)) s)
                  (- (+ time (/ 1.0 2.0)) (/ 217.0 5.0)))))
      (a!36 (+ (/ 7174065113067627.0 125000000000000.0)
               (* (* (- (/ 1522471138741821.0 1250000000000000000.0)) s)
                  (- (+ time (/ 1.0 2.0)) (/ 217.0 5.0))))))
(let ((a!18 (<= a!17
                (+ (^ (- npc_x_1 npc_x_0) 2.0) (^ (- npc_y_1 npc_y_0) 2.0))))
      (a!20 (<= a!19
                (+ (^ (- npc_x_3 npc_x_0) 2.0) (^ (- npc_y_3 npc_y_0) 2.0)))))
(let ((a!21 (and (>= (+ (* a!1 a!2) (* a!3 a!4)) 0.0)
                 (<= (+ (* a!1 a!2) (* a!3 a!4)) (+ (^ a!2 2.0) (^ a!4 2.0)))
                 (>= (+ (* a!1 a!5) (* a!3 a!6)) 0.0)
                 (<= (+ (* a!1 a!5) (* a!3 a!6)) (+ (^ a!5 2.0) (^ a!6 2.0)))
                 (=> (< (+ time 0.0) (/ 217.0 5.0)) a!7)
                 a!8
                 (=> (> (+ time 0.0) (/ 267.0 5.0)) (= s 0.0))
                 (=> (>= (+ time 0.0) (/ 217.0 5.0))
                     (and (= npc_x_0 a!9)
                          (= npc_y_0 a!10)
                          (= npc_x_1 a!11)
                          (= npc_y_1 a!12)
                          (= npc_x_2 a!13)
                          (= npc_y_2 a!14)
                          (= npc_x_3 a!15)
                          (= npc_y_3 a!16)))
                 (and (>= a!17 0.0) a!18 (>= a!19 0.0) a!20)))
      (a!37 (and (>= (+ (* a!22 a!23) (* a!24 a!25)) 0.0)
                 (<= (+ (* a!22 a!23) (* a!24 a!25))
                     (+ (^ a!23 2.0) (^ a!25 2.0)))
                 (>= (+ (* a!22 a!26) (* a!24 a!27)) 0.0)
                 (<= (+ (* a!22 a!26) (* a!24 a!27))
                     (+ (^ a!26 2.0) (^ a!27 2.0)))
                 (=> (< (+ time (/ 1.0 2.0)) (/ 217.0 5.0)) a!7)
                 a!28
                 (=> (> (+ time (/ 1.0 2.0)) (/ 267.0 5.0)) (= s 0.0))
                 (=> (>= (+ time (/ 1.0 2.0)) (/ 217.0 5.0))
                     (and (= npc_x_0 a!29)
                          (= npc_y_0 a!30)
                          (= npc_x_1 a!31)
                          (= npc_y_1 a!32)
                          (= npc_x_2 a!33)
                          (= npc_y_2 a!34)
                          (= npc_x_3 a!35)
                          (= npc_y_3 a!36)))
                 (and (>= a!17 0.0) a!18 (>= a!19 0.0) a!20))))
  (and (= (+ (^ cos_yaw_0 2.0) (^ sin_yaw_0 2.0)) 1.0)
       (= (+ (^ cos_yaw_1 2.0) (^ sin_yaw_1 2.0)) 1.0)
       (or a!21 a!37)
       (>= time (/ 217.0 5.0))
       (<= time (/ 267.0 5.0))
       (>= (- (/ 2694157090990693.0 17592186044416.0))
           (+ (* 1.0 cos_yaw_0)
              (* (- 1.0) x_1)
              (* (- 1.0) y_1)
              (* 1.0 cos_yaw_1))))))))
(set-option :pp.decimal true)
(set-option :pp.decimal_precision 10)
(check-sat)
(get-model)